100
32
7
14
11
26
30
15
17
14
27
4
2
32
8
18
12
1
4
2
29
1
16
13
16
6
29
24
18
31
26
27
2
23
13
22
19
31
22
29
20
22
5
16
2
27
30
4
7
24
25
7
15
22
29
13
31
17
13
27
20
6
21
22
9
7
14
24
15
7
20
31
20
12
23
27
1
16
22
13
9
15
3
7
16
31
5
31
30
10
28
26
26
1
12
13
24
3
32
17
14
31